(declare-const X String)
; log\=\u{7B}IP\u{3A}\d\u{2E}txt\s+Pcast\u{2E}dat\u{2E}Toolbar\u{7D}\u{7B}OS\u{3A}toolsbar\u{2E}kuaiso\u{2E}comHost\u{3A}
(assert (str.in_re X (re.++ (str.to_re "log={IP:") (re.range "0" "9") (str.to_re ".txt") (re.+ (re.union (str.to_re " ") (str.to_re "\u{9}") (str.to_re "\u{a}") (str.to_re "\u{c}") (str.to_re "\u{d}"))) (str.to_re "Pcast.dat.Toolbar}{OS:toolsbar.kuaiso.comHost:\u{a}"))))
; http[s]?://[a-zA-Z0-9.-/]+
(assert (not (str.in_re X (re.++ (str.to_re "http") (re.opt (str.to_re "s")) (str.to_re "://") (re.+ (re.union (re.range "a" "z") (re.range "A" "Z") (re.range "0" "9") (re.range "." "/"))) (str.to_re "\u{a}")))))
; ([a-zA-Z0-9\_\-\.]+[a-zA-Z0-9\_\-\.]+[a-zA-Z0-9\_\-\.]+)+@([a-zA-z0-9][a-zA-z0-9][a-zA-z0-9]*)+(\.[a-zA-z0-9][a-zA-z0-9][a-zA-z0-9]*)(\.[a-zA-z0-9]+)*
(assert (str.in_re X (re.++ (re.+ (re.++ (re.+ (re.union (re.range "a" "z") (re.range "A" "Z") (re.range "0" "9") (str.to_re "_") (str.to_re "-") (str.to_re "."))) (re.+ (re.union (re.range "a" "z") (re.range "A" "Z") (re.range "0" "9") (str.to_re "_") (str.to_re "-") (str.to_re "."))) (re.+ (re.union (re.range "a" "z") (re.range "A" "Z") (re.range "0" "9") (str.to_re "_") (str.to_re "-") (str.to_re "."))))) (str.to_re "@") (re.+ (re.++ (re.union (re.range "a" "z") (re.range "A" "z") (re.range "0" "9")) (re.union (re.range "a" "z") (re.range "A" "z") (re.range "0" "9")) (re.* (re.union (re.range "a" "z") (re.range "A" "z") (re.range "0" "9"))))) (re.* (re.++ (str.to_re ".") (re.+ (re.union (re.range "a" "z") (re.range "A" "z") (re.range "0" "9"))))) (str.to_re "\u{a}.") (re.union (re.range "a" "z") (re.range "A" "z") (re.range "0" "9")) (re.union (re.range "a" "z") (re.range "A" "z") (re.range "0" "9")) (re.* (re.union (re.range "a" "z") (re.range "A" "z") (re.range "0" "9"))))))
(check-sat)
